n = 80;
capacity = 100;
size = [79, 79, 78, 78, 77, 75, 73, 72, 72, 70, 69, 69, 68, 67, 66, 66, 65, 63, 61, 61, 61, 60, 59, 59, 58, 58, 58, 58, 57, 56, 56, 54, 54, 54, 52, 51, 49, 48, 47, 47, 47, 46, 46, 45, 45, 45, 44, 44, 44, 43, 42, 41, 41, 41, 41, 40, 40, 39, 39, 35, 35, 34, 33, 33, 32, 31, 30, 30, 30, 29, 28, 28, 26, 25, 24, 24, 23, 22, 21, 21];
